p cnf 7230 17
-2178 -6377 6501 0
-3464 -6375 6499 0
-6239 -6363 -6497 0
2178 -6502 0
3464 -6500 0
6239 -6498 0
-6501 6502 0
-6499 6500 0
6497 6498 0
6377 -6502 0
6375 -6500 0
6363 -6498 0
-6241 -6369 6504 0
6495 6496 0
-6495 -6496 0
6369 -6504 0
6241 -6504 0
